DIMENSION: 18
EDGE_WEIGHT_TYPE: EXPLICIT
EDGE_WEIGHT_FORMAT: FULL_MATRIX
EDGE_WEIGHT_SECTION:
32767 37 32767 32767 32767 32767 90 76 32767 32767 32767 32767 32767 62 52 19 97 32767 
37 32767 84 32767 41 23 22 2 32767 32767 32767 69 30 68 40 32767 32767 32767 
32767 84 32767 32767 32767 82 32767 88 32767 32767 32767 32767 7 32767 43 32767 32767 32767 
32767 32767 32767 32767 32767 75 32767 32767 32767 59 32767 32767 32767 32767 32767 78 32767 32767 
32767 41 32767 32767 32767 61 32767 92 32767 98 32767 92 32767 98 44 32767 32767 32767 
32767 23 82 75 61 32767 32767 87 16 32767 8 32767 32767 32767 32767 41 32767 85 
90 22 32767 32767 32767 32767 32767 29 90 32767 32767 91 14 32767 32767 62 32767 32767 
76 2 88 32767 92 87 29 32767 32767 32767 32767 32767 32767 32767 78 32767 32767 32767 
32767 32767 32767 32767 32767 16 90 32767 32767 82 32767 80 21 32767 32767 32767 32767 32767 
32767 32767 32767 59 98 32767 32767 32767 82 32767 84 21 32767 47 81 78 32767 60 
32767 32767 32767 32767 32767 8 32767 32767 32767 84 32767 32767 32767 32767 32767 32767 84 32767 
32767 69 32767 32767 92 32767 91 32767 80 21 32767 32767 64 32767 32767 32767 31 32767 
32767 30 7 32767 32767 32767 14 32767 21 32767 32767 64 32767 32767 89 23 32767 32767 
62 68 32767 32767 98 32767 32767 32767 32767 47 32767 32767 32767 32767 32767 32767 32767 17 
52 40 43 32767 44 32767 32767 78 32767 81 32767 32767 89 32767 32767 32767 77 32767 
19 32767 32767 78 32767 41 62 32767 32767 78 32767 32767 23 32767 32767 32767 99 40 
97 32767 32767 32767 32767 32767 32767 32767 32767 32767 84 31 32767 32767 77 99 32767 97 
32767 32767 32767 32767 32767 85 32767 32767 32767 60 32767 32767 32767 17 32767 40 97 32767 
EOF